100
32
26
5
13
3
25
11
13
25
1
21
8
23
10
6
1
12
2
1
2
12
1
11
1
1
3
12
1
11
2
1
1
1
12
2
1
14
14
17
2
6
1
2
3
3
1
1
2
17
18
1
7
19
17
3
4
16
2
5
1
1
1
10
1
11
8
2
17
2
6
2
3
17
2
17
1
1
2
1
2
1
18
7
2
4
1
5
3
1
2
1
1
2
4
1
1
4
3
1
2
2